c filename
p cnf 150 50
-6 -116 -84 0
-135 72 83 0
19 -3 31 0
89 -91 -128 0
130 -119 111 0
52 -97 85 0
39 -137 114 0
-102 -20 141 0
-139 -25 140 0
-134 66 28 0
-112 -20 111 0
-64 -13 23 0
6 65 -9 0
25 -51 -2 0
91 45 -68 0
-18 -61 130 0
133 -148 -126 0
-107 122 -129 0
66 -149 121 0
61 -34 -2 0
114 9 -12 0
-10 38 9 0
-69 -75 -134 0
40 -41 139 0
46 63 139 0
-115 32 -51 0
25 49 -147 0
-116 -120 44 0
78 126 -33 0
109 80 -140 0
22 -52 -112 0
141 143 137 0
-20 -4 -104 0
-13 122 -130 0
-87 -80 -107 0
-124 -43 115 0
-64 53 106 0
-28 -115 87 0
-87 34 -98 0
-139 -48 -25 0
50 86 -64 0
-73 -1 82 0
-73 -137 118 0
-43 -64 -56 0
100 -47 54 0
17 95 79 0
-2 -116 -139 0
-28 16 26 0
-5 23 -131 0
-97 51 -119 0
